c "473254.clq"
p edge 150 584
e 1 5
e 1 6
e 1 7
e 1 9
e 1 11
e 1 14
e 1 21
e 1 26
e 1 34
e 1 54
e 1 59
e 1 84
e 2 5
e 2 6
e 2 7
e 2 8
e 2 10
e 2 19
e 2 33
e 2 47
e 3 5
e 3 7
e 3 8
e 3 10
e 3 13
e 3 14
e 3 23
e 3 24
e 3 27
e 3 28
e 3 31
e 3 36
e 3 43
e 3 62
e 3 78
e 3 115
e 3 121
e 3 122
e 3 126
e 3 127
e 3 132
e 3 136
e 3 147
e 4 5
e 4 6
e 4 11
e 4 13
e 4 16
e 4 17
e 4 18
e 4 21
e 4 26
e 4 38
e 4 41
e 4 54
e 4 58
e 4 92
e 4 117
e 4 143
e 4 145
e 4 149
e 5 6
e 5 8
e 5 9
e 5 12
e 5 19
e 5 24
e 5 36
e 5 37
e 5 43
e 5 46
e 5 72
e 5 113
e 5 135
e 6 7
e 6 9
e 6 11
e 6 12
e 6 15
e 6 16
e 6 17
e 6 20
e 6 23
e 6 30
e 6 32
e 6 34
e 6 40
e 6 42
e 6 43
e 6 45
e 6 47
e 6 51
e 6 56
e 6 58
e 6 59
e 6 61
e 6 65
e 6 66
e 6 67
e 6 81
e 6 89
e 6 102
e 6 112
e 7 8
e 7 10
e 7 12
e 7 13
e 7 23
e 7 24
e 7 25
e 7 28
e 7 35
e 7 49
e 7 52
e 7 57
e 7 63
e 7 67
e 7 70
e 7 72
e 7 74
e 7 80
e 7 81
e 7 82
e 7 85
e 7 89
e 7 93
e 7 96
e 7 102
e 7 103
e 7 137
e 8 9
e 8 10
e 8 11
e 8 14
e 8 20
e 8 22
e 8 25
e 8 26
e 8 27
e 8 39
e 8 45
e 8 50
e 8 51
e 8 52
e 8 60
e 8 65
e 8 66
e 8 69
e 8 79
e 8 81
e 8 85
e 8 86
e 8 90
e 8 91
e 8 94
e 8 130
e 8 135
e 8 138
e 8 140
e 8 145
e 8 146
e 8 148
e 9 18
e 9 34
e 9 95
e 10 15
e 10 16
e 10 18
e 10 21
e 10 29
e 10 37
e 10 41
e 10 42
e 10 44
e 10 54
e 10 70
e 10 75
e 10 77
e 10 97
e 10 98
e 10 100
e 10 103
e 10 108
e 10 114
e 10 130
e 10 147
e 11 12
e 11 15
e 11 17
e 11 20
e 11 26
e 11 29
e 11 30
e 11 38
e 11 45
e 11 51
e 11 59
e 11 64
e 11 69
e 11 72
e 11 74
e 11 78
e 11 99
e 11 101
e 11 106
e 11 107
e 11 124
e 12 13
e 12 18
e 12 23
e 12 24
e 12 25
e 12 32
e 12 37
e 12 39
e 12 41
e 12 46
e 12 47
e 12 48
e 12 53
e 12 66
e 12 77
e 12 78
e 12 106
e 12 116
e 12 121
e 12 123
e 12 139
e 12 143
e 12 147
e 13 14
e 13 17
e 13 19
e 13 20
e 13 21
e 13 31
e 13 32
e 13 33
e 13 40
e 13 44
e 13 49
e 13 58
e 13 63
e 13 69
e 13 70
e 13 72
e 13 73
e 13 74
e 13 86
e 13 90
e 13 111
e 13 122
e 13 128
e 13 144
e 13 146
e 14 15
e 14 16
e 14 19
e 14 22
e 14 27
e 14 28
e 14 34
e 14 37
e 14 48
e 14 62
e 14 76
e 14 84
e 14 102
e 14 103
e 14 105
e 14 110
e 14 113
e 14 120
e 14 131
e 14 133
e 14 134
e 14 140
e 14 144
e 15 25
e 15 48
e 15 87
e 15 98
e 16 22
e 16 123
e 16 146
e 17 27
e 17 32
e 17 44
e 17 49
e 17 55
e 17 60
e 17 68
e 17 109
e 17 130
e 18 30
e 18 53
e 18 67
e 18 68
e 18 88
e 18 95
e 18 112
e 18 115
e 18 119
e 19 30
e 19 38
e 19 41
e 19 57
e 19 65
e 19 71
e 19 92
e 19 134
e 19 142
e 20 22
e 20 36
e 20 39
e 20 40
e 20 64
e 20 114
e 20 144
e 21 29
e 21 44
e 21 55
e 21 58
e 21 87
e 21 120
e 21 145
e 22 31
e 22 136
e 22 142
e 23 36
e 23 52
e 23 73
e 23 109
e 23 117
e 23 131
e 24 33
e 24 35
e 24 42
e 24 82
e 24 84
e 24 93
e 24 98
e 24 129
e 24 135
e 25 28
e 25 38
e 25 39
e 25 65
e 25 66
e 25 110
e 25 119
e 25 125
e 26 56
e 26 63
e 26 75
e 26 77
e 26 80
e 26 97
e 26 116
e 26 128
e 26 131
e 27 31
e 27 35
e 27 40
e 27 46
e 27 61
e 27 81
e 27 83
e 27 99
e 27 134
e 27 141
e 28 29
e 28 50
e 28 55
e 28 62
e 28 64
e 28 71
e 28 78
e 28 98
e 28 99
e 28 116
e 29 53
e 29 57
e 29 99
e 29 118
e 30 35
e 30 45
e 30 50
e 30 56
e 30 57
e 30 60
e 30 70
e 30 88
e 30 94
e 30 104
e 30 111
e 30 126
e 30 140
e 31 33
e 31 150
e 32 46
e 32 48
e 32 71
e 32 112
e 33 42
e 33 125
e 34 60
e 34 112
e 34 115
e 35 50
e 36 54
e 36 92
e 36 108
e 36 110
e 37 90
e 37 129
e 38 53
e 38 95
e 38 104
e 39 119
e 40 47
e 40 59
e 40 68
e 40 76
e 40 82
e 40 83
e 40 101
e 40 127
e 40 135
e 41 43
e 41 49
e 41 77
e 41 124
e 42 52
e 42 91
e 42 106
e 42 134
e 43 56
e 43 118
e 43 123
e 45 148
e 46 86
e 47 75
e 47 79
e 47 96
e 47 122
e 47 150
e 48 51
e 48 80
e 48 107
e 48 117
e 49 55
e 49 61
e 49 71
e 49 83
e 49 85
e 49 86
e 49 111
e 49 126
e 51 136
e 52 137
e 53 69
e 53 128
e 54 61
e 54 96
e 54 121
e 55 64
e 55 89
e 55 148
e 56 114
e 57 63
e 57 76
e 57 100
e 57 109
e 57 128
e 57 139
e 58 94
e 58 108
e 58 118
e 58 130
e 58 133
e 59 82
e 59 131
e 60 62
e 60 68
e 60 92
e 60 97
e 60 100
e 60 101
e 60 107
e 60 143
e 61 90
e 62 141
e 63 67
e 63 89
e 64 114
e 64 120
e 64 129
e 64 132
e 65 73
e 65 101
e 65 121
e 65 150
e 66 107
e 67 91
e 67 103
e 68 74
e 68 80
e 69 83
e 69 84
e 69 93
e 69 132
e 70 75
e 70 132
e 70 133
e 71 73
e 71 76
e 71 85
e 71 87
e 71 116
e 71 138
e 72 115
e 73 79
e 73 105
e 73 139
e 73 148
e 74 123
e 74 133
e 75 79
e 75 96
e 79 125
e 79 137
e 79 149
e 80 94
e 80 100
e 80 105
e 80 110
e 80 122
e 81 93
e 82 87
e 82 137
e 83 117
e 84 105
e 84 113
e 85 102
e 85 141
e 86 88
e 86 97
e 86 127
e 87 88
e 87 106
e 87 144
e 89 91
e 90 95
e 90 142
e 91 104
e 96 109
e 96 124
e 99 104
e 102 111
e 103 124
e 104 108
e 104 125
e 104 126
e 105 139
e 106 129
e 107 127
e 108 120
e 112 113
e 112 118
e 114 142
e 116 119
e 116 136
e 116 147
e 117 149
e 117 150
e 119 138
e 122 138
e 123 143
e 127 149
e 134 141
e 136 140
e 140 146
e 144 145
